10
10
751891
0
0
48 152 24 80 23 95 13 13 78 10
1
0
25 146 17 120 38 118 7 13 38 20
2
0
33 170 18 70 18 80 6 14 50 7
3
0
41 185 16 57 23 82 11 18 55 11
4
0
28 188 17 81 17 89 12 11 50 7
5
0
32 113 26 68 22 118 14 16 52 16
6
0
32 185 20 102 23 103 10 15 57 15
7
0
29 156 15 75 16 69 8 11 70 14
8
0
25 183 17 101 20 75 8 11 42 22
9
0
28 206 12 75 12 96 18 13 47 23
